Results/Experiment 1 Results/Existing Benchmark/RES_20/i-20-100-15.txt
solutions: 2 nodes: 3  modelTime: 148  solveTime: 12  totalTime: 163  modelSize: 7358  readTime: 3 matchingSize: 10
