Results/Experiment 2 Results/Existing Benchmark/i-20-100-15.lp
clingo version 5.4.0
Reading from tempSRTISolver.lp ...
Solving...
Answer: 1
matched(3,2) matched(2,3) matched(19,4) matched(6,5) matched(5,6) matched(18,7) matched(11,8) matched(15,9) matched(14,10) matched(8,11) matched(20,12) matched(16,13) matched(10,14) matched(9,15) matched(13,16) matched(1,17) matched(7,18) matched(4,19) matched(12,20) matched(17,1)
Optimization: 86
Answer: 2
matched(3,2) matched(2,3) matched(5,4) matched(4,5) matched(19,6) matched(18,7) matched(11,8) matched(15,9) matched(14,10) matched(8,11) matched(20,12) matched(16,13) matched(10,14) matched(9,15) matched(13,16) matched(1,17) matched(7,18) matched(6,19) matched(12,20) matched(17,1)
Optimization: 78
OPTIMUM FOUND

Models       : 2
  Optimum    : yes
Optimization : 78
Calls        : 1
Time         : 0.069s (Solving: 0.00s 1st Model: 0.00s Unsat: 0.00s)
CPU Time     : 0.068s
